
Gurobi 12.0.2 (linux64, C++) logging started Thu Jun 19 08:00:19 2025

Set parameter LogFile to value "log/instances/scenario4/not_correlated_sc4/300/kpfs_10.txt.log"

Gurobi 12.0.2 (linux64, C++) logging started Thu Jun 19 08:01:42 2025

Set parameter LogFile to value "log/instances/scenario4/not_correlated_sc4/300/kpfs_10.txt.log"

Gurobi 12.0.2 (linux64, C++) logging started Thu Jun 19 08:02:53 2025

Set parameter LogFile to value "log/instances/scenario4/not_correlated_sc4/300/kpfs_10.txt.log"

Gurobi 12.0.2 (linux64, C++) logging started Thu Jun 19 08:03:57 2025

Set parameter LogFile to value "log/instances/scenario4/not_correlated_sc4/300/kpfs_10.txt.log"

Gurobi 12.0.2 (linux64, C++) logging started Thu Jun 19 12:37:36 2025

Set parameter WLSAccessID
Set parameter WLSSecret
Set parameter LicenseID to value 2679381
Set parameter LogFile to value "log/instances/scenario4/not_correlated_sc4/300/kpfs_10.txt.log"
Academic license 2679381 - for non-commercial use only - registered to be___@poli.ufrj.br
Set parameter TimeLimit to value 1800
Set parameter Threads to value 1
Gurobi Optimizer version 12.0.2 build v12.0.2rc0 (linux64 - "Ubuntu 24.04.1 LTS")

CPU model: 13th Gen Intel(R) Core(TM) i7-1355U, instruction set [SSE2|AVX|AVX2]
Thread count: 6 physical cores, 12 logical processors, using up to 1 threads

Non-default parameters:
TimeLimit  1800
Threads  1

Academic license 2679381 - for non-commercial use only - registered to be___@poli.ufrj.br
Optimize a model with 902 rows, 1200 columns and 9676 nonzeros
Model fingerprint: 0x91561181
Variable types: 0 continuous, 1200 integer (300 binary)
Coefficient statistics:
  Matrix range     [1e+00, 3e+01]
  Objective range  [1e+00, 3e+01]
  Bounds range     [1e+00, 1e+01]
  RHS range        [1e+00, 5e+02]
Found heuristic solution: objective 501.0000000
Presolve removed 0 rows and 55 columns
Presolve time: 0.10s
Presolved: 902 rows, 1145 columns, 9566 nonzeros
Variable types: 0 continuous, 1145 integer (356 binary)

Root relaxation: objective 9.201711e+02, 480 iterations, 0.03 seconds (0.02 work units)

    Nodes    |    Current Node    |     Objective Bounds      |     Work
 Expl Unexpl |  Obj  Depth IntInf | Incumbent    BestBd   Gap | It/Node Time

     0     0  920.17114    0  112  501.00000  920.17114  83.7%     -    0s
H    0     0                     752.0000000  920.17114  22.4%     -    0s
H    0     0                     760.0000000  920.17114  21.1%     -    0s
H    0     0                     788.0000000  920.17114  16.8%     -    0s
H    0     0                     794.0000000  920.17114  15.9%     -    0s
H    0     0                     824.0000000  920.17114  11.7%     -    0s
H    0     0                     835.0000000  920.17114  10.2%     -    0s
H    0     0                     851.0000000  920.17114  8.13%     -    0s
     0     0  918.00772    0  110  851.00000  918.00772  7.87%     -    0s
H    0     0                     869.0000000  917.96559  5.63%     -    0s
H    0     0                     870.0000000  917.96559  5.51%     -    0s
H    0     0                     873.0000000  917.96559  5.15%     -    0s
H    0     0                     875.0000000  917.96559  4.91%     -    0s
     0     0  917.89351    0  111  875.00000  917.89351  4.90%     -    0s
     0     0  915.99753    0  111  875.00000  915.99753  4.69%     -    0s
     0     0  915.95380    0  110  875.00000  915.95380  4.68%     -    0s
     0     0  914.79882    0  118  875.00000  914.79882  4.55%     -    1s
     0     0  914.51071    0  118  875.00000  914.51071  4.52%     -    1s
     0     0  913.97477    0  121  875.00000  913.97477  4.45%     -    1s
     0     0  913.93080    0  123  875.00000  913.93080  4.45%     -    1s
     0     0  913.82746    0  119  875.00000  913.82746  4.44%     -    1s
     0     0  913.79877    0  121  875.00000  913.79877  4.43%     -    1s
     0     0  913.79877    0  121  875.00000  913.79877  4.43%     -    1s
     0     0  913.77793    0  121  875.00000  913.77793  4.43%     -    1s
     0     0  913.75517    0  123  875.00000  913.75517  4.43%     -    1s
     0     0  913.64504    0  123  875.00000  913.64504  4.42%     -    2s
H    0     0                     879.0000000  913.64504  3.94%     -    2s
H    0     0                     884.0000000  913.64504  3.35%     -    2s
     0     2  913.48191    0  123  884.00000  913.48191  3.34%     -    2s
H  104    79                     886.0000000  908.20879  2.51%  31.7    3s
   243   126     cutoff   18       886.00000  902.53617  1.87%  31.0    5s
H  635   220                     887.0000000  895.64012  0.97%  28.1    7s
H  646   200                     888.0000000  895.64012  0.86%  27.8    7s
H  651   134                     890.0000000  895.64012  0.63%  27.6    7s

Cutting planes:
  Gomory: 2
  MIR: 15
  Zero half: 12

Explored 815 nodes (21330 simplex iterations) in 8.56 seconds (1.80 work units)
Thread count was 1 (of 12 available processors)

Solution count 10: 890 888 887 ... 869

Optimal solution found (tolerance 1.00e-04)
Best objective 8.900000000000e+02, best bound 8.900000000000e+02, gap 0.0000%
